52
2 0 1
2 1 1
4 0 1
5 1 1
5 3 1
6 0 1
6 1 1
7 0 1
7 4 1
8 0 1
8 1 1
8 2 1
8 3 1
8 4 1
8 5 1
8 6 1
9 0 1
9 3 1
9 5 1
9 6 1
9 7 1
10 2 1
10 3 1
10 4 1
10 6 1
10 7 1
10 9 1
11 0 1
11 1 1
11 2 1
11 4 1
11 6 1
11 10 1
12 0 1
12 8 1
12 10 1
12 11 1
13 0 1
13 1 1
13 3 1
13 4 1
13 5 1
13 7 1
13 10 1
14 0 1
14 2 1
14 3 1
14 4 1
14 6 1
14 11 1
15 0 1
15 1 1
15 4 1
15 6 1
15 7 1
15 11 1
16 2 1
16 3 1
16 6 1
16 7 1
16 8 1
16 9 1
17 4 1
17 7 1
17 8 1
17 9 1
17 10 1
17 11 1
17 13 1
17 14 1
17 15 1
18 0 1
18 1 1
18 2 1
18 8 1
18 11 1
18 13 1
19 0 1
19 4 1
19 6 1
19 7 1
19 10 1
19 12 1
19 13 1
19 16 1
20 0 1
20 1 1
20 2 1
20 5 1
20 6 1
20 11 1
20 12 1
20 13 1
20 14 1
20 15 1
20 16 1
20 19 1
21 0 1
21 1 1
21 3 1
21 4 1
21 5 1
21 8 1
21 11 1
21 12 1
21 14 1
21 16 1
22 1 1
22 7 1
22 8 1
22 11 1
22 13 1
22 17 1
22 18 1
22 20 1
22 21 1
23 1 1
23 3 1
23 5 1
23 8 1
23 9 1
23 11 1
23 12 1
23 16 1
23 18 1
23 20 1
23 21 1
24 1 1
24 3 1
24 4 1
24 5 1
24 7 1
24 10 1
24 13 1
24 14 1
24 15 1
24 16 1
24 19 1
24 20 1
24 21 1
25 3 1
25 5 1
25 6 1
25 7 1
25 8 1
25 9 1
25 13 1
25 15 1
25 16 1
25 17 1
25 19 1
25 20 1
25 23 1
26 3 1
26 5 1
26 6 1
26 8 1
26 9 1
26 10 1
26 11 1
26 13 1
26 17 1
26 18 1
26 19 1
26 21 1
26 22 1
26 25 1
27 2 1
27 3 1
27 4 1
27 10 1
27 15 1
27 16 1
27 17 1
27 19 1
27 21 1
27 22 1
27 23 1
27 24 1
27 25 1
28 0 1
28 2 1
28 3 1
28 4 1
28 6 1
28 10 1
28 15 1
28 17 1
28 18 1
28 19 1
28 24 1
28 25 1
28 26 1
29 1 1
29 3 1
29 4 1
29 5 1
29 6 1
29 7 1
29 8 1
29 9 1
29 12 1
29 15 1
29 20 1
29 26 1
30 0 1
30 2 1
30 3 1
30 7 1
30 9 1
30 11 1
30 12 1
30 15 1
30 19 1
30 20 1
30 21 1
30 22 1
30 24 1
30 28 1
31 0 1
31 3 1
31 5 1
31 6 1
31 9 1
31 11 1
31 12 1
31 15 1
31 16 1
31 21 1
31 23 1
31 24 1
31 26 1
31 27 1
31 30 1
32 0 1
32 2 1
32 4 1
32 7 1
32 8 1
32 9 1
32 10 1
32 12 1
32 13 1
32 15 1
32 17 1
32 18 1
32 24 1
32 25 1
32 26 1
32 27 1
32 28 1
32 29 1
32 30 1
32 31 1
33 1 1
33 2 1
33 3 1
33 5 1
33 8 1
33 9 1
33 10 1
33 11 1
33 14 1
33 16 1
33 21 1
33 23 1
33 25 1
33 26 1
33 27 1
33 28 1
33 31 1
34 0 1
34 1 1
34 2 1
34 3 1
34 4 1
34 6 1
34 7 1
34 8 1
34 11 1
34 12 1
34 13 1
34 15 1
34 17 1
34 18 1
34 19 1
34 20 1
34 21 1
34 22 1
34 23 1
34 24 1
34 25 1
34 28 1
34 29 1
34 32 1
34 33 1
35 0 1
35 1 1
35 4 1
35 5 1
35 8 1
35 9 1
35 10 1
35 11 1
35 12 1
35 16 1
35 17 1
35 23 1
35 24 1
35 25 1
35 29 1
35 30 1
35 32 1
35 33 1
36 1 1
36 3 1
36 5 1
36 6 1
36 8 1
36 9 1
36 10 1
36 11 1
36 13 1
36 14 1
36 18 1
36 19 1
36 21 1
36 23 1
36 25 1
36 26 1
36 28 1
36 29 1
36 33 1
37 0 1
37 1 1
37 5 1
37 8 1
37 9 1
37 10 1
37 12 1
37 14 1
37 18 1
37 19 1
37 22 1
37 23 1
37 24 1
37 25 1
37 27 1
37 32 1
37 35 1
37 36 1
38 2 1
38 4 1
38 7 1
38 8 1
38 11 1
38 14 1
38 15 1
38 16 1
38 19 1
38 20 1
38 23 1
38 24 1
38 25 1
38 26 1
38 28 1
38 29 1
38 30 1
38 32 1
38 34 1
38 35 1
38 37 1
39 2 1
39 4 1
39 5 1
39 7 1
39 8 1
39 9 1
39 10 1
39 11 1
39 12 1
39 16 1
39 18 1
39 21 1
39 26 1
39 28 1
39 31 1
39 32 1
39 33 1
39 34 1
39 35 1
40 1 1
40 2 1
40 4 1
40 8 1
40 10 1
40 12 1
40 13 1
40 15 1
40 16 1
40 19 1
40 20 1
40 29 1
40 30 1
40 32 1
40 33 1
40 34 1
40 35 1
40 36 1
41 0 1
41 2 1
41 3 1
41 4 1
41 5 1
41 8 1
41 12 1
41 15 1
41 18 1
41 19 1
41 20 1
41 24 1
41 25 1
41 26 1
41 29 1
41 32 1
41 33 1
41 34 1
41 35 1
41 38 1
41 39 1
42 0 1
42 2 1
42 4 1
42 8 1
42 9 1
42 10 1
42 11 1
42 14 1
42 18 1
42 19 1
42 22 1
42 24 1
42 26 1
42 27 1
42 30 1
42 31 1
42 32 1
42 33 1
42 34 1
42 40 1
42 41 1
43 0 1
43 2 1
43 4 1
43 6 1
43 7 1
43 8 1
43 9 1
43 13 1
43 14 1
43 15 1
43 17 1
43 19 1
43 25 1
43 29 1
43 30 1
43 32 1
43 33 1
43 37 1
43 38 1
43 39 1
43 41 1
43 42 1
44 2 1
44 3 1
44 7 1
44 10 1
44 14 1
44 16 1
44 17 1
44 18 1
44 20 1
44 24 1
44 25 1
44 26 1
44 27 1
44 28 1
44 30 1
44 31 1
44 32 1
44 35 1
44 37 1
44 40 1
44 43 1
45 0 1
45 3 1
45 7 1
45 9 1
45 11 1
45 12 1
45 15 1
45 16 1
45 20 1
45 22 1
45 25 1
45 26 1
45 29 1
45 31 1
45 32 1
45 34 1
45 35 1
45 37 1
45 39 1
45 41 1
45 42 1
46 0 1
46 1 1
46 3 1
46 4 1
46 5 1
46 6 1
46 7 1
46 9 1
46 11 1
46 12 1
46 14 1
46 15 1
46 17 1
46 18 1
46 19 1
46 20 1
46 21 1
46 24 1
46 25 1
46 26 1
46 28 1
46 29 1
46 31 1
46 33 1
46 35 1
47 2 1
47 5 1
47 6 1
47 8 1
47 10 1
47 13 1
47 16 1
47 18 1
47 20 1
47 21 1
47 24 1
47 26 1
47 28 1
47 31 1
47 33 1
47 34 1
47 35 1
47 37 1
47 40 1
47 43 1
48 1 1
48 3 1
48 5 1
48 6 1
48 8 1
48 14 1
48 15 1
48 16 1
48 20 1
48 23 1
48 24 1
48 25 1
48 28 1
48 30 1
48 31 1
48 32 1
48 33 1
48 34 1
48 35 1
48 37 1
48 38 1
48 39 1
48 40 1
48 43 1
48 45 1
48 46 1
48 47 1
49 3 1
49 4 1
49 6 1
49 8 1
49 9 1
49 10 1
49 11 1
49 12 1
49 15 1
49 18 1
49 23 1
49 24 1
49 27 1
49 30 1
49 31 1
49 33 1
49 34 1
49 35 1
49 39 1
49 40 1
49 42 1
49 44 1
49 46 1
49 48 1
50 2 1
50 3 1
50 4 1
50 6 1
50 7 1
50 9 1
50 11 1
50 12 1
50 15 1
50 17 1
50 19 1
50 22 1
50 25 1
50 26 1
50 27 1
50 28 1
50 29 1
50 37 1
50 38 1
50 42 1
50 47 1
51 0 1
51 2 1
51 4 1
51 7 1
51 9 1
51 10 1
51 12 1
51 16 1
51 17 1
51 19 1
51 20 1
51 21 1
51 22 1
51 26 1
51 27 1
51 28 1
51 29 1
51 31 1
51 34 1
51 37 1
51 39 1
51 41 1
51 42 1
51 43 1
51 44 1
51 47 1
51 49 1
